n_res = 4;
rc = [ 0, 0, 0, 0 ];
n_tasks = 30;
d = [ 8, 4, 6, 3, 8, 5, 9, 2, 7, 9, 2, 6, 3, 9, 10, 6, 5, 3, 7, 2, 7, 2, 3, 3, 7, 8, 3, 7, 2, 2 ];
rr = [| 0, 0, 0, 0, 0, 0, 0, 0, 0, 0, 0, 0, 0, 0, 0, 0, 0, 0, 0, 0, 0, 0, 0, 0, 0, 0, 0, 0, 0, 0
      | 0, 0, 0, 0, 0, 0, 0, 0, 0, 0, 0, 0, 0, 0, 0, 0, 0, 0, 0, 0, 0, 0, 0, 0, 0, 0, 0, 0, 0, 0
      | 0, 0, 0, 0, 0, 0, 0, 0, 0, 0, 0, 0, 0, 0, 0, 0, 0, 0, 0, 0, 0, 0, 0, 0, 0, 0, 0, 0, 0, 0
      | 0, 0, 0, 0, 0, 0, 0, 0, 0, 0, 0, 0, 0, 0, 0, 0, 0, 0, 0, 0, 0, 0, 0, 0, 0, 0, 0, 0, 0, 0 |];
suc = [ { 5, 10, 14 },
       { 6, 7, 12 },
       { 4, 8, 9 },
       { 19 },
       { 29 },
       { 26 },
       { 11, 18, 26 },
       { 13 },
       { 15, 24 },
       { 19, 25 },
       { 13 },
       { 16, 17 },
       { 16 },
       { 24 },
       { 20, 21 },
       { 21 },
       { 19, 21 },
       { 23, 28 },
       { 22, 24 },
       { 27 },
       { 22 },
       { 23 },
       { 29 },
       { 29 },
       { 30 },
       { 27 },
       { 30 },
       {  },
       {  },
       {  } ];
